POSCAR
1.0
       14.7600002289         0.0000000000         0.0000000000
       -7.3800001144        12.7825351581         0.0000000000
        0.0000000000         0.0000000000        21.0000000000
    B    N   Au    C    O
   36   36   19    1    1
S
Cartesian
     0.000000000         0.000000000         1.699949987 F F F
     2.460049158         0.000000000         1.699949987 F F F
     4.919950956         0.000000000         1.699949987 F F F
     7.380000114         0.000000000         1.699949987 F F F
     9.840049713         0.000000000         1.699949987 F F F
    12.299950631         0.000000000         1.699949987 F F F
    -1.230024579         2.130465066         1.699949987 F F F
     1.230024579         2.130465066         1.699949987 F F F
     3.689926377         2.130465066         1.699949987 F F F
     6.149975535         2.130465066         1.699949987 F F F
     8.610025133         2.130465066         1.699949987 F F F
    11.069926051         2.130465066         1.699949987 F F F
    -2.459975478         4.260802513         1.699949987 F F F
     0.000073680         4.260802513         1.699949987 F F F
     2.459975478         4.260802513         1.699949987 F F F
     4.920024636         4.260802513         1.699949987 F F F
     7.380074235         4.260802513         1.699949987 F F F
     9.839975153         4.260802513         1.699949987 F F F
    -3.690000057         6.391267579         1.699949987 F F F
    -1.229950899         6.391267579         1.699949987 F F F
     1.229950899         6.391267579         1.699949987 F F F
     3.690000057         6.391267579         1.699949987 F F F
     6.150049655         6.391267579         1.699949987 F F F
     8.609950573         6.391267579         1.699949987 F F F
    -4.920024856         8.521733026         1.699949987 F F F
    -2.459975698         8.521733026         1.699949987 F F F
    -0.000073900         8.521733026         1.699949987 F F F
     2.459975258         8.521733026         1.699949987 F F F
     4.920024856         8.521733026         1.699949987 F F F
     7.379925774         8.521733026         1.699949987 F F F
    -6.149975315        10.652069711         1.699949987 F F F
    -3.689926157        10.652069711         1.699949987 F F F
    -1.230024359        10.652069711         1.699949987 F F F
     1.230024799        10.652069711         1.699949987 F F F
     3.690074397        10.652069711         1.699949987 F F F
     6.149975315        10.652069711         1.699949987 F F F
     0.000073790         1.420267504         1.699949987 F F F
     2.459975478         1.420267504         1.699949987 F F F
     4.920024636         1.420267504         1.699949987 F F F
     7.379925994         1.420267504         1.699949987 F F F
     9.839975592         1.420267504         1.699949987 F F F
    12.300025191         1.420267504         1.699949987 F F F
    -1.229950789         3.550732570         1.699949987 F F F
     1.229950899         3.550732570         1.699949987 F F F
     3.690000057         3.550732570         1.699949987 F F F
     6.149901415         3.550732570         1.699949987 F F F
     8.609951013         3.550732570         1.699949987 F F F
    11.070000612         3.550732570         1.699949987 F F F
    -2.459901688         5.681070018         1.699949987 F F F
     0.000000000         5.681070018         1.699949987 F F F
     2.460049158         5.681070018         1.699949987 F F F
     4.919950516         5.681070018         1.699949987 F F F
     7.380000114         5.681070018         1.699949987 F F F
     9.840049713         5.681070018         1.699949987 F F F
    -3.689926047         7.811534703         1.699949987 F F F
    -1.230024359         7.811534703         1.699949987 F F F
     1.230024799         7.811534703         1.699949987 F F F
     3.689926157         7.811534703         1.699949987 F F F
     6.149975755         7.811534703         1.699949987 F F F
     8.610025353         7.811534703         1.699949987 F F F
    -4.919950846         9.942000149         1.699949987 F F F
    -2.460049158         9.942000149         1.699949987 F F F
     0.000000000         9.942000149         1.699949987 F F F
     2.459901358         9.942000149         1.699949987 F F F
     4.919950956         9.942000149         1.699949987 F F F
     7.380000554         9.942000149         1.699949987 F F F
    -6.149901745        12.072337597         1.699949987 F F F
    -3.690000057        12.072337597         1.699949987 F F F
    -1.229950899        12.072337597         1.699949987 F F F
     1.229950459        12.072337597         1.699949987 F F F
     3.690000057        12.072337597         1.699949987 F F F
     6.150049655        12.072337597         1.699949987 F F F
     0.737852387         7.803993432        10.015109897 T T T
     2.138724167         5.382214201        10.014480293 T T T
     3.539595946         7.823422604        10.037999690 T T T
     4.942680993         8.632302017         7.876050174 F F F 
     2.143889924         8.909682582         7.877099723 F F F 
     3.795607876         6.063651238         7.884029746 F F F 
    -0.651801735         8.602901879         7.842030287 F F F 
     0.471434602         6.034379099         7.870169699 F F F 
     2.138945207         3.776344421         7.845389843 F F F 
     6.192779381         9.348507148         5.568359882 F F F 
     3.499448770         9.489753981         5.490660131 F F F 
     4.982459548         6.936698501         5.503259718 F F F 
     0.830619162         9.485280113         5.479949981 F F F 
     2.175623912         7.015055187         5.361720264 F F F 
     3.656642464         4.623442946         5.496120036 F F F 
    -1.863154630         9.329716446         5.524049789 F F F 
    -0.626193108         6.929540465         5.452649832 F F F 
     0.714531588         4.625488262         5.460839689 F F F 
     2.184701323         2.357738617         5.528460145 F F F 
     2.123816556         4.748200391        11.942910612 T T T
     2.220494544         4.287518102        13.073339939 T T T
