# opt freq hf/3-21g

This line is comment

0 1
B           0.00000000       0.00000000       1.69994999
B           2.46004916       0.00000000       1.69994999
B           4.91995096       0.00000000       1.69994999
B           7.38000011       0.00000000       1.69994999
B           9.84004971       0.00000000       1.69994999
B          12.29995063       0.00000000       1.69994999
B          -1.23002458       2.13046507       1.69994999
B           1.23002458       2.13046507       1.69994999
B           3.68992638       2.13046507       1.69994999
B           6.14997554       2.13046507       1.69994999
B           8.61002513       2.13046507       1.69994999
B          11.06992605       2.13046507       1.69994999
B          -2.45997548       4.26080251       1.69994999
B           0.00007368       4.26080251       1.69994999
B           2.45997548       4.26080251       1.69994999
B           4.92002464       4.26080251       1.69994999
B           7.38007424       4.26080251       1.69994999
B           9.83997515       4.26080251       1.69994999
B          -3.69000006       6.39126758       1.69994999
B          -1.22995090       6.39126758       1.69994999
B           1.22995090       6.39126758       1.69994999
B           3.69000006       6.39126758       1.69994999
B           6.15004966       6.39126758       1.69994999
B           8.60995057       6.39126758       1.69994999
B          -4.92002486       8.52173303       1.69994999
B          -2.45997570       8.52173303       1.69994999
B          -0.00007390       8.52173303       1.69994999
B           2.45997526       8.52173303       1.69994999
B           4.92002486       8.52173303       1.69994999
B           7.37992577       8.52173303       1.69994999
B          -6.14997531      10.65206971       1.69994999
B          -3.68992616      10.65206971       1.69994999
B          -1.23002436      10.65206971       1.69994999
B           1.23002480      10.65206971       1.69994999
B           3.69007440      10.65206971       1.69994999
B           6.14997531      10.65206971       1.69994999
N           0.00007379       1.42026750       1.69994999
N           2.45997548       1.42026750       1.69994999
N           4.92002464       1.42026750       1.69994999
N           7.37992599       1.42026750       1.69994999
N           9.83997559       1.42026750       1.69994999
N          12.30002519       1.42026750       1.69994999
N          -1.22995079       3.55073257       1.69994999
N           1.22995090       3.55073257       1.69994999
N           3.69000006       3.55073257       1.69994999
N           6.14990142       3.55073257       1.69994999
N           8.60995101       3.55073257       1.69994999
N          11.07000061       3.55073257       1.69994999
N          -2.45990169       5.68107002       1.69994999
N           0.00000000       5.68107002       1.69994999
N           2.46004916       5.68107002       1.69994999
N           4.91995052       5.68107002       1.69994999
N           7.38000011       5.68107002       1.69994999
N           9.84004971       5.68107002       1.69994999
N          -3.68992605       7.81153470       1.69994999
N          -1.23002436       7.81153470       1.69994999
N           1.23002480       7.81153470       1.69994999
N           3.68992616       7.81153470       1.69994999
N           6.14997575       7.81153470       1.69994999
N           8.61002535       7.81153470       1.69994999
N          -4.91995085       9.94200015       1.69994999
N          -2.46004916       9.94200015       1.69994999
N           0.00000000       9.94200015       1.69994999
N           2.45990136       9.94200015       1.69994999
N           4.91995096       9.94200015       1.69994999
N           7.38000055       9.94200015       1.69994999
N          -6.14990175      12.07233760       1.69994999
N          -3.69000006      12.07233760       1.69994999
N          -1.22995090      12.07233760       1.69994999
N           1.22995046      12.07233760       1.69994999
N           3.69000006      12.07233760       1.69994999
N           6.15004966      12.07233760       1.69994999
Au          0.73785239       7.80399343      10.01510990
Au          2.13872417       5.38221420      10.01448029
Au          3.53959595       7.82342260      10.03799969
Au          4.94268099       8.63230202       7.87605017
Au          2.14388992       8.90968258       7.87709972
Au          3.79560788       6.06365124       7.88402975
Au         -0.65180174       8.60290188       7.84203029
Au          0.47143460       6.03437910       7.87016970
Au          2.13894521       3.77634442       7.84538984
Au          6.19277938       9.34850715       5.56835988
Au          3.49944877       9.48975398       5.49066013
Au          4.98245955       6.93669850       5.50325972
Au          0.83061916       9.48528011       5.47994998
Au          2.17562391       7.01505519       5.36172026
Au          3.65664246       4.62344295       5.49612004
Au         -1.86315463       9.32971645       5.52404979
Au         -0.62619311       6.92954046       5.45264983
Au          0.71453159       4.62548826       5.46083969
Au          2.18470132       2.35773862       5.52846015
C           2.12381656       4.74820039      11.94291061
O           2.22049454       4.28751810      13.07333994
B           0.00000000       0.00000000       1.69994999
B           2.46004916       0.00000000       1.69994999
B           4.91995096       0.00000000       1.69994999
B           7.38000011       0.00000000       1.69994999
B           9.84004971       0.00000000       1.69994999
B          12.29995063       0.00000000       1.69994999
B          -1.23002458       2.13046507       1.69994999
B           1.23002458       2.13046507       1.69994999
B           3.68992638       2.13046507       1.69994999
B           6.14997554       2.13046507       1.69994999
B           8.61002513       2.13046507       1.69994999
B          11.06992605       2.13046507       1.69994999
B          -2.45997548       4.26080251       1.69994999
B           0.00007368       4.26080251       1.69994999
B           2.45997548       4.26080251       1.69994999
B           4.92002464       4.26080251       1.69994999
B           7.38007424       4.26080251       1.69994999
B           9.83997515       4.26080251       1.69994999
B          -3.69000006       6.39126758       1.69994999
B          -1.22995090       6.39126758       1.69994999
B           1.22995090       6.39126758       1.69994999
B           3.69000006       6.39126758       1.69994999
B           6.15004966       6.39126758       1.69994999
B           8.60995057       6.39126758       1.69994999
B          -4.92002486       8.52173303       1.69994999
B          -2.45997570       8.52173303       1.69994999
B          -0.00007390       8.52173303       1.69994999
B           2.45997526       8.52173303       1.69994999
B           4.92002486       8.52173303       1.69994999
B           7.37992577       8.52173303       1.69994999
B          -6.14997531      10.65206971       1.69994999
B          -3.68992616      10.65206971       1.69994999
B          -1.23002436      10.65206971       1.69994999
B           1.23002480      10.65206971       1.69994999
B           3.69007440      10.65206971       1.69994999
B           6.14997531      10.65206971       1.69994999
N           0.00007379       1.42026750       1.69994999
N           2.45997548       1.42026750       1.69994999
N           4.92002464       1.42026750       1.69994999
N           7.37992599       1.42026750       1.69994999
N           9.83997559       1.42026750       1.69994999
N          12.30002519       1.42026750       1.69994999
N          -1.22995079       3.55073257       1.69994999
N           1.22995090       3.55073257       1.69994999
N           3.69000006       3.55073257       1.69994999
N           6.14990142       3.55073257       1.69994999
N           8.60995101       3.55073257       1.69994999
N          11.07000061       3.55073257       1.69994999
N          -2.45990169       5.68107002       1.69994999
N           0.00000000       5.68107002       1.69994999
N           2.46004916       5.68107002       1.69994999
N           4.91995052       5.68107002       1.69994999
N           7.38000011       5.68107002       1.69994999
N           9.84004971       5.68107002       1.69994999
N          -3.68992605       7.81153470       1.69994999
N          -1.23002436       7.81153470       1.69994999
N           1.23002480       7.81153470       1.69994999
N           3.68992616       7.81153470       1.69994999
N           6.14997575       7.81153470       1.69994999
N           8.61002535       7.81153470       1.69994999
N          -4.91995085       9.94200015       1.69994999
N          -2.46004916       9.94200015       1.69994999
N           0.00000000       9.94200015       1.69994999
N           2.45990136       9.94200015       1.69994999
N           4.91995096       9.94200015       1.69994999
N           7.38000055       9.94200015       1.69994999
N          -6.14990175      12.07233760       1.69994999
N          -3.69000006      12.07233760       1.69994999
N          -1.22995090      12.07233760       1.69994999
N           1.22995046      12.07233760       1.69994999
N           3.69000006      12.07233760       1.69994999
N           6.15004966      12.07233760       1.69994999
Au          0.73785239       7.80399343      10.01510990
Au          2.15390490       5.37720488      10.01196195
Au          3.53959595       7.82342260      10.03799969
Au          4.94268099       8.63230202       7.87605017
Au          2.14388992       8.90968258       7.87709972
Au          3.79560788       6.06365124       7.88402975
Au         -0.65180174       8.60290188       7.84203029
Au          0.47143460       6.03437910       7.87016970
Au          2.13894521       3.77634442       7.84538984
Au          6.19277938       9.34850715       5.56835988
Au          3.49944877       9.48975398       5.49066013
Au          4.98245955       6.93669850       5.50325972
Au          0.83061916       9.48528011       5.47994998
Au          2.17562391       7.01505519       5.36172026
Au          3.65664246       4.62344295       5.49612004
Au         -1.86315463       9.32971645       5.52404979
Au         -0.62619311       6.92954046       5.45264983
Au          0.71453159       4.62548826       5.46083969
Au          2.18470132       2.35773862       5.52846015
C           2.12381656       4.74820039      11.94291061
O           2.21131973       4.29025664      13.07609750
B           0.00000000       0.00000000       1.69994999
B           2.46004916       0.00000000       1.69994999
B           4.91995096       0.00000000       1.69994999
B           7.38000011       0.00000000       1.69994999
B           9.84004971       0.00000000       1.69994999
B          12.29995063       0.00000000       1.69994999
B          -1.23002458       2.13046507       1.69994999
B           1.23002458       2.13046507       1.69994999
B           3.68992638       2.13046507       1.69994999
B           6.14997554       2.13046507       1.69994999
B           8.61002513       2.13046507       1.69994999
B          11.06992605       2.13046507       1.69994999
B          -2.45997548       4.26080251       1.69994999
B           0.00007368       4.26080251       1.69994999
B           2.45997548       4.26080251       1.69994999
B           4.92002464       4.26080251       1.69994999
B           7.38007424       4.26080251       1.69994999
B           9.83997515       4.26080251       1.69994999
B          -3.69000006       6.39126758       1.69994999
B          -1.22995090       6.39126758       1.69994999
B           1.22995090       6.39126758       1.69994999
B           3.69000006       6.39126758       1.69994999
B           6.15004966       6.39126758       1.69994999
B           8.60995057       6.39126758       1.69994999
B          -4.92002486       8.52173303       1.69994999
B          -2.45997570       8.52173303       1.69994999
B          -0.00007390       8.52173303       1.69994999
B           2.45997526       8.52173303       1.69994999
B           4.92002486       8.52173303       1.69994999
B           7.37992577       8.52173303       1.69994999
B          -6.14997531      10.65206971       1.69994999
B          -3.68992616      10.65206971       1.69994999
B          -1.23002436      10.65206971       1.69994999
B           1.23002480      10.65206971       1.69994999
B           3.69007440      10.65206971       1.69994999
B           6.14997531      10.65206971       1.69994999
N           0.00007379       1.42026750       1.69994999
N           2.45997548       1.42026750       1.69994999
N           4.92002464       1.42026750       1.69994999
N           7.37992599       1.42026750       1.69994999
N           9.83997559       1.42026750       1.69994999
N          12.30002519       1.42026750       1.69994999
N          -1.22995079       3.55073257       1.69994999
N           1.22995090       3.55073257       1.69994999
N           3.69000006       3.55073257       1.69994999
N           6.14990142       3.55073257       1.69994999
N           8.60995101       3.55073257       1.69994999
N          11.07000061       3.55073257       1.69994999
N          -2.45990169       5.68107002       1.69994999
N           0.00000000       5.68107002       1.69994999
N           2.46004916       5.68107002       1.69994999
N           4.91995052       5.68107002       1.69994999
N           7.38000011       5.68107002       1.69994999
N           9.84004971       5.68107002       1.69994999
N          -3.68992605       7.81153470       1.69994999
N          -1.23002436       7.81153470       1.69994999
N           1.23002480       7.81153470       1.69994999
N           3.68992616       7.81153470       1.69994999
N           6.14997575       7.81153470       1.69994999
N           8.61002535       7.81153470       1.69994999
N          -4.91995085       9.94200015       1.69994999
N          -2.46004916       9.94200015       1.69994999
N           0.00000000       9.94200015       1.69994999
N           2.45990136       9.94200015       1.69994999
N           4.91995096       9.94200015       1.69994999
N           7.38000055       9.94200015       1.69994999
N          -6.14990175      12.07233760       1.69994999
N          -3.69000006      12.07233760       1.69994999
N          -1.22995090      12.07233760       1.69994999
N           1.22995046      12.07233760       1.69994999
N           3.69000006      12.07233760       1.69994999
N           6.15004966      12.07233760       1.69994999
Au          0.73785239       7.80399343      10.01510990
Au          2.16904897       5.37142883      10.01179618
Au          3.53959595       7.82342260      10.03799969
Au          4.94268099       8.63230202       7.87605017
Au          2.14388992       8.90968258       7.87709972
Au          3.79560788       6.06365124       7.88402975
Au         -0.65180174       8.60290188       7.84203029
Au          0.47143460       6.03437910       7.87016970
Au          2.13894521       3.77634442       7.84538984
Au          6.19277938       9.34850715       5.56835988
Au          3.49944877       9.48975398       5.49066013
Au          4.98245955       6.93669850       5.50325972
Au          0.83061916       9.48528011       5.47994998
Au          2.17562391       7.01505519       5.36172026
Au          3.65664246       4.62344295       5.49612004
Au         -1.86315463       9.32971645       5.52404979
Au         -0.62619311       6.92954046       5.45264983
Au          0.71453159       4.62548826       5.46083969
Au          2.18470132       2.35773862       5.52846015
C           2.12381656       4.74820039      11.94291061
O           2.20203830       4.29355063      13.07747446
B           0.00000000       0.00000000       1.69994999
B           2.46004916       0.00000000       1.69994999
B           4.91995096       0.00000000       1.69994999
B           7.38000011       0.00000000       1.69994999
B           9.84004971       0.00000000       1.69994999
B          12.29995063       0.00000000       1.69994999
B          -1.23002458       2.13046507       1.69994999
B           1.23002458       2.13046507       1.69994999
B           3.68992638       2.13046507       1.69994999
B           6.14997554       2.13046507       1.69994999
B           8.61002513       2.13046507       1.69994999
B          11.06992605       2.13046507       1.69994999
B          -2.45997548       4.26080251       1.69994999
B           0.00007368       4.26080251       1.69994999
B           2.45997548       4.26080251       1.69994999
B           4.92002464       4.26080251       1.69994999
B           7.38007424       4.26080251       1.69994999
B           9.83997515       4.26080251       1.69994999
B          -3.69000006       6.39126758       1.69994999
B          -1.22995090       6.39126758       1.69994999
B           1.22995090       6.39126758       1.69994999
B           3.69000006       6.39126758       1.69994999
B           6.15004966       6.39126758       1.69994999
B           8.60995057       6.39126758       1.69994999
B          -4.92002486       8.52173303       1.69994999
B          -2.45997570       8.52173303       1.69994999
B          -0.00007390       8.52173303       1.69994999
B           2.45997526       8.52173303       1.69994999
B           4.92002486       8.52173303       1.69994999
B           7.37992577       8.52173303       1.69994999
B          -6.14997531      10.65206971       1.69994999
B          -3.68992616      10.65206971       1.69994999
B          -1.23002436      10.65206971       1.69994999
B           1.23002480      10.65206971       1.69994999
B           3.69007440      10.65206971       1.69994999
B           6.14997531      10.65206971       1.69994999
N           0.00007379       1.42026750       1.69994999
N           2.45997548       1.42026750       1.69994999
N           4.92002464       1.42026750       1.69994999
N           7.37992599       1.42026750       1.69994999
N           9.83997559       1.42026750       1.69994999
N          12.30002519       1.42026750       1.69994999
N          -1.22995079       3.55073257       1.69994999
N           1.22995090       3.55073257       1.69994999
N           3.69000006       3.55073257       1.69994999
N           6.14990142       3.55073257       1.69994999
N           8.60995101       3.55073257       1.69994999
N          11.07000061       3.55073257       1.69994999
N          -2.45990169       5.68107002       1.69994999
N           0.00000000       5.68107002       1.69994999
N           2.46004916       5.68107002       1.69994999
N           4.91995052       5.68107002       1.69994999
N           7.38000011       5.68107002       1.69994999
N           9.84004971       5.68107002       1.69994999
N          -3.68992605       7.81153470       1.69994999
N          -1.23002436       7.81153470       1.69994999
N           1.23002480       7.81153470       1.69994999
N           3.68992616       7.81153470       1.69994999
N           6.14997575       7.81153470       1.69994999
N           8.61002535       7.81153470       1.69994999
N          -4.91995085       9.94200015       1.69994999
N          -2.46004916       9.94200015       1.69994999
N           0.00000000       9.94200015       1.69994999
N           2.45990136       9.94200015       1.69994999
N           4.91995096       9.94200015       1.69994999
N           7.38000055       9.94200015       1.69994999
N          -6.14990175      12.07233760       1.69994999
N          -3.69000006      12.07233760       1.69994999
N          -1.22995090      12.07233760       1.69994999
N           1.22995046      12.07233760       1.69994999
N           3.69000006      12.07233760       1.69994999
N           6.15004966      12.07233760       1.69994999
Au          0.73785239       7.80399343      10.01510990
Au          2.18413793       5.36489309      10.01398316
Au          3.53959595       7.82342260      10.03799969
Au          4.94268099       8.63230202       7.87605017
Au          2.14388992       8.90968258       7.87709972
Au          3.79560788       6.06365124       7.88402975
Au         -0.65180174       8.60290188       7.84203029
Au          0.47143460       6.03437910       7.87016970
Au          2.13894521       3.77634442       7.84538984
Au          6.19277938       9.34850715       5.56835988
Au          3.49944877       9.48975398       5.49066013
Au          4.98245955       6.93669850       5.50325972
Au          0.83061916       9.48528011       5.47994998
Au          2.17562391       7.01505519       5.36172026
Au          3.65664246       4.62344295       5.49612004
Au         -1.86315463       9.32971645       5.52404979
Au         -0.62619311       6.92954046       5.45264983
Au          0.71453159       4.62548826       5.46083969
Au          2.18470132       2.35773862       5.52846015
C           2.12381656       4.74820039      11.94291061
O           2.19266157       4.29739606      13.07746912
Tv         14.76000023       0.00000000       0.00000000
Tv         -7.38000011      12.78253516       0.00000000
Tv          0.00000000       0.00000000      21.00000000
