POSCAR
1.0000000000
+14.7600002289  +0.0000000000  +0.0000000000
 -7.3800001144 +12.7825351581  +0.0000000000
 +0.0000000000  +0.0000000000 +21.0000000000
 B N Au C O
 36 36 19 1 1
S
Cartesian
 +0.0000000000  +0.0000000000  +1.6999499870  F F F
 +2.4600491580  +0.0000000000  +1.6999499870  F F F
 +4.9199509560  +0.0000000000  +1.6999499870  F F F
 +7.3800001140  +0.0000000000  +1.6999499870  F F F
 +9.8400497130  +0.0000000000  +1.6999499870  F F F
+12.2999506310  +0.0000000000  +1.6999499870  F F F
 -1.2300245790  +2.1304650660  +1.6999499870  F F F
 +1.2300245790  +2.1304650660  +1.6999499870  F F F
 +3.6899263770  +2.1304650660  +1.6999499870  F F F
 +6.1499755350  +2.1304650660  +1.6999499870  F F F
 +8.6100251330  +2.1304650660  +1.6999499870  F F F
+11.0699260510  +2.1304650660  +1.6999499870  F F F
 -2.4599754780  +4.2608025130  +1.6999499870  F F F
 +0.0000736800  +4.2608025130  +1.6999499870  F F F
 +2.4599754780  +4.2608025130  +1.6999499870  F F F
 +4.9200246360  +4.2608025130  +1.6999499870  F F F
 +7.3800742350  +4.2608025130  +1.6999499870  F F F
 +9.8399751530  +4.2608025130  +1.6999499870  F F F
 -3.6900000570  +6.3912675790  +1.6999499870  F F F
 -1.2299508990  +6.3912675790  +1.6999499870  F F F
 +1.2299508990  +6.3912675790  +1.6999499870  F F F
 +3.6900000570  +6.3912675790  +1.6999499870  F F F
 +6.1500496550  +6.3912675790  +1.6999499870  F F F
 +8.6099505730  +6.3912675790  +1.6999499870  F F F
 -4.9200248560  +8.5217330260  +1.6999499870  F F F
 -2.4599756980  +8.5217330260  +1.6999499870  F F F
 -0.0000739000  +8.5217330260  +1.6999499870  F F F
 +2.4599752580  +8.5217330260  +1.6999499870  F F F
 +4.9200248560  +8.5217330260  +1.6999499870  F F F
 +7.3799257740  +8.5217330260  +1.6999499870  F F F
 -6.1499753150 +10.6520697110  +1.6999499870  F F F
 -3.6899261570 +10.6520697110  +1.6999499870  F F F
 -1.2300243590 +10.6520697110  +1.6999499870  F F F
 +1.2300247990 +10.6520697110  +1.6999499870  F F F
 +3.6900743970 +10.6520697110  +1.6999499870  F F F
 +6.1499753150 +10.6520697110  +1.6999499870  F F F
 +0.0000737900  +1.4202675040  +1.6999499870  F F F
 +2.4599754780  +1.4202675040  +1.6999499870  F F F
 +4.9200246360  +1.4202675040  +1.6999499870  F F F
 +7.3799259940  +1.4202675040  +1.6999499870  F F F
 +9.8399755920  +1.4202675040  +1.6999499870  F F F
+12.3000251910  +1.4202675040  +1.6999499870  F F F
 -1.2299507890  +3.5507325700  +1.6999499870  F F F
 +1.2299508990  +3.5507325700  +1.6999499870  F F F
 +3.6900000570  +3.5507325700  +1.6999499870  F F F
 +6.1499014150  +3.5507325700  +1.6999499870  F F F
 +8.6099510130  +3.5507325700  +1.6999499870  F F F
+11.0700006120  +3.5507325700  +1.6999499870  F F F
 -2.4599016880  +5.6810700180  +1.6999499870  F F F
 +0.0000000000  +5.6810700180  +1.6999499870  F F F
 +2.4600491580  +5.6810700180  +1.6999499870  F F F
 +4.9199505160  +5.6810700180  +1.6999499870  F F F
 +7.3800001140  +5.6810700180  +1.6999499870  F F F
 +9.8400497130  +5.6810700180  +1.6999499870  F F F
 -3.6899260470  +7.8115347030  +1.6999499870  F F F
 -1.2300243590  +7.8115347030  +1.6999499870  F F F
 +1.2300247990  +7.8115347030  +1.6999499870  F F F
 +3.6899261570  +7.8115347030  +1.6999499870  F F F
 +6.1499757550  +7.8115347030  +1.6999499870  F F F
 +8.6100253530  +7.8115347030  +1.6999499870  F F F
 -4.9199508460  +9.9420001490  +1.6999499870  F F F
 -2.4600491580  +9.9420001490  +1.6999499870  F F F
 +0.0000000000  +9.9420001490  +1.6999499870  F F F
 +2.4599013580  +9.9420001490  +1.6999499870  F F F
 +4.9199509560  +9.9420001490  +1.6999499870  F F F
 +7.3800005540  +9.9420001490  +1.6999499870  F F F
 -6.1499017450 +12.0723375970  +1.6999499870  F F F
 -3.6900000570 +12.0723375970  +1.6999499870  F F F
 -1.2299508990 +12.0723375970  +1.6999499870  F F F
 +1.2299504590 +12.0723375970  +1.6999499870  F F F
 +3.6900000570 +12.0723375970  +1.6999499870  F F F
 +6.1500496550 +12.0723375970  +1.6999499870  F F F
 +0.7378523870  +7.8039934320 +10.0151098970  T T T
 +2.1387241670  +5.3822142010 +10.0144802930  T T T
 +3.5395959460  +7.8234226040 +10.0379996900  T T T
 +4.9426809930  +8.6323020170  +7.8760501740  F F F
 +2.1438899240  +8.9096825820  +7.8770997230  F F F
 +3.7956078760  +6.0636512380  +7.8840297460  F F F
 -0.6518017350  +8.6029018790  +7.8420302870  F F F
 +0.4714346020  +6.0343790990  +7.8701696990  F F F
 +2.1389452070  +3.7763444210  +7.8453898430  F F F
 +6.1927793810  +9.3485071480  +5.5683598820  F F F
 +3.4994487700  +9.4897539810  +5.4906601310  F F F
 +4.9824595480  +6.9366985010  +5.5032597180  F F F
 +0.8306191620  +9.4852801130  +5.4799499810  F F F
 +2.1756239120  +7.0150551870  +5.3617202640  F F F
 +3.6566424640  +4.6234429460  +5.4961200360  F F F
 -1.8631546300  +9.3297164460  +5.5240497890  F F F
 -0.6261931080  +6.9295404650  +5.4526498320  F F F
 +0.7145315880  +4.6254882620  +5.4608396890  F F F
 +2.1847013230  +2.3577386170  +5.5284601450  F F F
 +2.1317117407  +4.7105788824 +12.0352268519  T T T
 +2.2283897287  +4.2498965934 +13.1656561789  T T T
